
Gurobi 11.0.3 (win64) logging started Wed Sep  4 12:08:55 2024

Set parameter LogFile to value "C:\Users\ealvarezq\Desktop\E.Representative_days_based_on_Line_Benefits_OptModel\IEEE118_mod2_ByStages_nc120/openStarNet_IEEE118_mod2_ByStages_nc120.log"
Set parameter Method to value 2
Set parameter MIPFocus to value 1
Set parameter Presolve to value 2
Set parameter RINS to value 100
Set parameter MIPGap to value 0.01
Set parameter Threads to value 24
Set parameter TimeLimit to value 259200
Set parameter IterationLimit to value 760000000
Gurobi Optimizer version 11.0.3 build v11.0.3rc0 (win64 - Windows Server 2019.0 (17763.2))

CPU model: AMD Ryzen Threadripper PRO 3955WX 16-Cores, instruction set [SSE2|AVX|AVX2]
Thread count: 16 physical cores, 32 logical processors, using up to 24 threads

Optimize a model with 170523 rows, 125818 columns and 438812 nonzeros
Model fingerprint: 0x7379aaf7
Variable types: 125784 continuous, 34 integer (34 binary)
Coefficient statistics:
  Matrix range     [3e-04, 9e+03]
  Objective range  [1e+00, 1e+00]
  Bounds range     [1e-04, 3e+00]
  RHS range        [2e-04, 3e+00]
Presolve removed 115244 rows and 57747 columns
Presolve time: 1.36s
Presolved: 55279 rows, 68071 columns, 202100 nonzeros
Variable types: 68037 continuous, 34 integer (34 binary)
Root relaxation presolved: 55279 rows, 68071 columns, 202100 nonzeros

Root barrier log...

Ordering time: 0.04s

Barrier statistics:
 Dense cols : 34
 AA' NZ     : 2.501e+05
 Factor NZ  : 9.869e+05 (roughly 60 MB of memory)
 Factor Ops : 2.148e+07 (less than 1 second per iteration)
 Threads    : 23

                  Objective                Residual
Iter       Primal          Dual         Primal    Dual     Compl     Time
   0   8.80308981e+06 -3.73998318e+09  1.56e+01 3.73e+03  1.01e+05     2s
   1   2.10490309e+06 -1.44501310e+09  3.45e+00 1.05e-07  2.10e+04     2s
   2   5.31485666e+05 -4.40286193e+08  6.10e-01 5.79e-08  4.04e+03     2s
   3   3.00611355e+05 -1.16021977e+08  1.49e-01 8.53e-09  8.70e+02     3s
   4   2.07872922e+05 -1.22884279e+07  1.36e-02 1.66e-09  7.97e+01     3s
   5   1.25885082e+05 -2.96995577e+06  1.75e-03 3.41e-10  1.91e+01     3s
   6   7.55898108e+04 -7.74947417e+05  7.19e-04 1.13e-10  5.22e+00     3s
   7   4.02676950e+04 -2.51775413e+05  2.77e-04 3.09e-11  1.79e+00     3s
   8   1.42554955e+04 -5.17971244e+04  5.57e-05 9.76e-12  4.05e-01     3s
   9   9.84918955e+03 -2.12126641e+04  3.52e-05 8.48e-12  1.90e-01     3s
  10   4.99671818e+03 -6.53197657e+03  1.54e-05 1.10e-11  7.06e-02     3s
  11   3.29379906e+03 -3.29313195e+03  8.99e-06 8.69e-12  4.03e-02     3s
  12   2.07608609e+03 -9.26675399e+02  4.48e-06 6.61e-12  1.84e-02     3s
  13   1.69714041e+03 -4.52343029e+02  3.15e-06 7.28e-12  1.32e-02     3s
  14   1.31207147e+03  1.00956508e+02  1.83e-06 6.37e-12  7.42e-03     3s
  15   1.12870163e+03  4.64898388e+02  1.26e-06 7.85e-12  4.07e-03     3s
  16   1.01020900e+03  5.69999601e+02  8.80e-07 7.38e-12  2.70e-03     3s
  17   9.31560105e+02  6.17367514e+02  6.33e-07 4.83e-12  1.92e-03     3s
  18   8.85692873e+02  6.52228356e+02  4.90e-07 1.11e-11  1.43e-03     3s
  19   8.51737164e+02  6.76451450e+02  3.85e-07 8.78e-12  1.07e-03     3s
  20   8.18035015e+02  6.91690771e+02  2.82e-07 7.39e-12  7.74e-04     3s
  21   7.78199918e+02  7.03318722e+02  1.66e-07 7.46e-12  4.59e-04     3s
  22   7.57814915e+02  7.11333503e+02  1.07e-07 7.78e-12  2.85e-04     3s
  23   7.47170089e+02  7.15385667e+02  7.39e-08 5.34e-12  1.95e-04     3s
  24   7.41053243e+02  7.17477205e+02  5.44e-08 1.16e-11  1.44e-04     3s
  25   7.36859761e+02  7.20056948e+02  4.13e-08 5.16e-12  1.03e-04     3s
  26   7.31611086e+02  7.21182142e+02  2.47e-08 9.47e-12  6.39e-05     3s
  27   7.30725655e+02  7.21738261e+02  2.20e-08 2.98e-12  5.50e-05     3s
  28   7.28157125e+02  7.22664071e+02  1.40e-08 1.95e-11  3.36e-05     3s
  29   7.25062287e+02  7.22954602e+02  7.66e-09 9.19e-12  1.29e-05     3s
  30   7.24684157e+02  7.23180355e+02  9.04e-09 1.29e-11  9.21e-06     3s
  31   7.24097184e+02  7.23394445e+02  6.86e-09 7.68e-12  4.30e-06     3s
  32   7.23869701e+02  7.23450836e+02  4.74e-09 6.11e-12  2.57e-06     3s
  33   7.23752222e+02  7.23510615e+02  5.62e-09 5.71e-12  1.48e-06     3s
  34   7.23651202e+02  7.23525799e+02  3.96e-09 7.11e-12  7.68e-07     3s
  35   7.23584858e+02  7.23550498e+02  6.17e-10 8.89e-12  2.10e-07     4s
  36   7.23568256e+02  7.23556178e+02  3.05e-09 7.59e-12  7.40e-08     4s
  37   7.23559382e+02  7.23558842e+02  1.31e-09 1.33e-11  3.31e-09     4s
  38   7.23559276e+02  7.23559191e+02  5.75e-09 1.28e-11  5.24e-10     4s
  39   7.23559255e+02  7.23559244e+02  5.76e-11 4.13e-12  6.72e-11     4s

Barrier solved model in 39 iterations and 3.65 seconds (2.37 work units)
Optimal objective 7.23559255e+02


Root relaxation: objective 7.235593e+02, 5107 iterations, 2.77 seconds (1.76 work units)
Total elapsed time = 5.19s (DegenMoves)

    Nodes    |    Current Node    |     Objective Bounds      |     Work
 Expl Unexpl |  Obj  Depth IntInf | Incumbent    BestBd   Gap | It/Node Time

     0     0  723.55925    0   22          -  723.55925      -     -    5s
H    0     0                    6559.9843199  723.55925  89.0%     -   11s
H    0     0                    2227.5710095  723.55925  67.5%     -   15s
     0     0  737.07191    0   21 2227.57101  737.07191  66.9%     -   22s
     0     0  737.58558    0   21 2227.57101  737.58558  66.9%     -   30s
     0     0  737.62441    0   21 2227.57101  737.62441  66.9%     -   31s
     0     0  737.62441    0   21 2227.57101  737.62441  66.9%     -   31s
     0     0  739.26208    0   20 2227.57101  739.26208  66.8%     -   34s
     0     0  739.26265    0   20 2227.57101  739.26265  66.8%     -   35s
     0     0  740.00905    0   19 2227.57101  740.00905  66.8%     -   37s
     0     0  740.01085    0   19 2227.57101  740.01085  66.8%     -   38s
     0     0  740.02153    0   19 2227.57101  740.02153  66.8%     -   39s
     0     0  740.02153    0   19 2227.57101  740.02153  66.8%     -   42s
H    0     0                     823.1615875  740.02153  10.1%     -  352s
     0     2  740.02153    0   19  823.16159  740.02153  10.1%     -  354s
     1     4  764.55648    1   19  823.16159  740.09893  10.1%  5190  361s
     3     6     cutoff    2       823.16159  761.06178  7.54%  4688  381s
     7     8  776.42157    3   16  823.16159  769.31703  6.54%  4677  429s
    13    16  815.80356    4   14  823.16159  776.43340  5.68%  5265  436s
    21    22  817.50899    5   15  823.16159  782.32798  4.96%  3748  454s
    37    24  821.20673    6   13  823.16159  789.51342  4.09%  3475  489s
    59    28     cutoff    7       823.16159  790.90530  3.92%  3282  508s
    83    36  799.20386    8   12  823.16159  792.88710  3.68%  2982  516s
   107    37  799.84927    9   11  823.16159  799.23257  2.91%  2645  522s
   131    32  803.93803   10    9  823.16159  800.20086  2.79%  2377  528s
   161    25  812.18885   11    8  823.16159  800.20086  2.79%  2198  546s
   186    16  808.65844   10   10  823.16159  807.86394  1.86%  2159  553s
   218    10  811.41264   11    9  823.16159  808.60304  1.77%  1977  566s
   237     9     cutoff   12       823.16159  812.41704  1.31%  1916  575s

Cutting planes:
  Implied bound: 206
  MIR: 319
  Flow cover: 2

Explored 251 nodes (477819 simplex iterations) in 575.85 seconds (484.54 work units)
Thread count was 24 (of 32 available processors)

Solution count 3: 823.162 2227.57 6559.98 

Optimal solution found (tolerance 1.00e-02)
Best objective 8.231615874565e+02, best bound 8.161268840648e+02, gap 0.8546%

Gurobi 11.0.3 (win64) logging started Wed Sep  4 12:20:01 2024

Set parameter LogFile to value "C:\Users\ealvarezq\Desktop\E.Representative_days_based_on_Line_Benefits_OptModel\IEEE118_mod2_ByStages_nc120/openStarNet_IEEE118_mod2_ByStages_nc120.log"
Set parameter Method to value 2
Set parameter MIPFocus to value 1
Set parameter Presolve to value 2
Set parameter RINS to value 100
Set parameter MIPGap to value 0.01
Set parameter Threads to value 24
Set parameter TimeLimit to value 259200
Set parameter IterationLimit to value 760000000
Gurobi Optimizer version 11.0.3 build v11.0.3rc0 (win64 - Windows Server 2019.0 (17763.2))

CPU model: AMD Ryzen Threadripper PRO 3955WX 16-Cores, instruction set [SSE2|AVX|AVX2]
Thread count: 16 physical cores, 32 logical processors, using up to 24 threads

Optimize a model with 170523 rows, 125784 columns and 422458 nonzeros
Model fingerprint: 0x5fecd66a
Coefficient statistics:
  Matrix range     [3e-04, 9e+03]
  Objective range  [1e+00, 1e+00]
  Bounds range     [1e-04, 3e+00]
  RHS range        [2e-04, 2e+02]
Presolve removed 127129 rows and 55085 columns
Presolve time: 0.38s
Presolved: 43394 rows, 71068 columns, 169977 nonzeros

Ordering time: 0.02s

Barrier statistics:
 AA' NZ     : 1.421e+05
 Factor NZ  : 5.693e+05 (roughly 50 MB of memory)
 Factor Ops : 8.194e+06 (less than 1 second per iteration)
 Threads    : 24

                  Objective                Residual
Iter       Primal          Dual         Primal    Dual     Compl     Time
   0   1.40915967e+07 -2.14684098e+09  8.85e+01 2.42e+02  5.29e+04     1s
   1   1.77318738e+06 -6.29963320e+08  9.94e+00 6.37e-12  7.38e+03     1s
   2   3.49709612e+05 -1.16237357e+08  1.11e+00 5.46e-12  9.86e+02     1s
   3   1.77565545e+05 -1.19318752e+07  2.57e-02 4.55e-12  8.00e+01     1s
   4   9.73411794e+04 -1.61857117e+06  2.19e-04 2.73e-12  1.11e+01     1s
   5   5.65423483e+04 -4.68469640e+05  7.69e-05 1.19e-12  3.38e+00     1s
   6   3.04479333e+04 -1.65825579e+05  2.72e-05 1.03e-12  1.26e+00     1s
   7   1.44638090e+04 -5.48386380e+04  9.62e-06 7.59e-13  4.46e-01     1s
   8   8.05632198e+03 -1.99374733e+04  4.53e-06 7.38e-13  1.80e-01     1s
   9   4.44677084e+03 -7.26567951e+03  2.13e-06 8.47e-13  7.54e-02     1s
  10   2.74232171e+03 -1.86508301e+03  1.08e-06 1.04e-12  2.97e-02     1s
  11   1.92108246e+03 -7.35557140e+02  5.97e-07 1.71e-12  1.71e-02     1s
  12   1.57645827e+03 -3.09519454e+02  3.99e-07 1.30e-12  1.21e-02     1s
  13   1.29776013e+03  1.82229393e+02  2.43e-07 7.27e-13  7.18e-03     1s
  14   1.13123297e+03  4.51916173e+02  1.53e-07 5.44e-13  4.37e-03     1s
  15   9.99584599e+02  6.27107493e+02  8.35e-08 1.09e-12  2.40e-03     1s
  16   9.33929601e+02  7.16436195e+02  5.08e-08 6.15e-13  1.40e-03     1s
  17   8.92647026e+02  7.66530980e+02  3.10e-08 1.04e-12  8.12e-04     1s
  18   8.63082667e+02  7.92909838e+02  1.77e-08 6.76e-13  4.52e-04     1s
  19   8.50077947e+02  8.04210569e+02  1.17e-08 6.85e-13  2.95e-04     1s
  20   8.38932633e+02  8.14231325e+02  6.81e-09 8.45e-13  1.59e-04     1s
  21   8.30267865e+02  8.19020665e+02  3.00e-09 9.39e-13  7.24e-05     1s
  22   8.27250702e+02  8.21344720e+02  1.70e-09 1.90e-12  3.80e-05     1s
  23   8.25644329e+02  8.22157888e+02  1.03e-09 1.25e-12  2.25e-05     1s
  24   8.24536220e+02  8.22645311e+02  5.64e-10 1.42e-12  1.22e-05     1s
  25   8.23816830e+02  8.22869516e+02  2.64e-10 1.08e-12  6.10e-06     1s
  26   8.23542589e+02  8.22982848e+02  1.50e-10 6.08e-13  3.60e-06     1s
  27   8.23294248e+02  8.23120486e+02  3.58e-10 9.45e-13  1.12e-06     1s
  28   8.23177384e+02  8.23143553e+02  3.64e-10 6.49e-13  2.18e-07     2s
  29   8.23162598e+02  8.23160880e+02  2.14e-10 8.12e-13  1.11e-08     2s
  30   8.23161639e+02  8.23161537e+02  1.56e-10 9.13e-13  6.57e-10     2s
  31   8.23161589e+02  8.23161586e+02  2.68e-10 7.87e-13  1.60e-11     2s

Barrier solved model in 31 iterations and 1.58 seconds (0.89 work units)
Optimal objective 8.23161589e+02

Crossover log...

   12321 DPushes remaining with DInf 0.0000000e+00                 2s
       0 DPushes remaining with DInf 0.0000000e+00                 2s

     473 PPushes remaining with PInf 0.0000000e+00                 2s
       0 PPushes remaining with PInf 0.0000000e+00                 2s

  Push phase complete: Pinf 0.0000000e+00, Dinf 1.8391995e-12      2s

Iteration    Objective       Primal Inf.    Dual Inf.      Time
    5025    8.2316159e+02   0.000000e+00   0.000000e+00      2s

Solved in 5025 iterations and 1.99 seconds (1.09 work units)
Optimal objective  8.231615874e+02
